20
60.0
0 19 5.63 3.52
1 18 5.27 3.12
2 17 5.37 3.35
3 16 5.41 3.45
4 15 4.98 3.05
5 14 5.75 3.59
6 13 5.17 3.1
7 12 5.74 3.77
8 11 4.99 3.1
9 10 5.26 3.31
10 9 5.4 3.21
11 8 6.01 3.73
12 7 5.2 3.18
13 6 5.23 3.13
14 5 5.1 3.39
15 4 5.15 3.08
16 3 3.35 1.97
17 2 2.86 1.93
18 1 2.73 1.96
